NAME : tsp_421_sol.txt
COMMENT : OR-Tools Guided Local Search
TYPE : TOUR
DIMENSION : 165
COST : 10135
STATUS : ROUTING_SUCCESS
GAP : 0.00% (Reference Solution)
TOUR_SECTION
1
45
79
108
70
92
138
97
96
39
33
85
10
165
88
75
111
116
74
152
48
122
78
155
141
20
103
135
87
68
83
46
157
129
12
147
140
124
41
119
93
62
134
27
118
18
105
42
137
117
6
47
59
9
66
89
104
69
130
133
2
67
29
55
109
54
38
112
13
77
86
131
14
28
162
60
22
5
163
3
136
64
107
90
144
37
156
63
24
57
125
101
113
100
159
94
4
73
58
56
65
121
164
7
127
81
132
36
110
106
95
150
82
61
126
19
161
23
158
91
51
154
32
49
30
35
40
43
160
44
148
31
139
76
50
52
146
8
123
72
151
21
145
149
53
26
25
71
153
114
34
120
16
11
98
17
128
102
80
142
115
84
143
15
99
-1
